NAME : kroC100-R-5-1-a.33594.tour
COMMENT : Length = 33594
COMMENT : Found by LKH-3 [Keld Helsgaun] Tue Jul 30 13:14:56 2024
TYPE : TOUR
DIMENSION : 100
TOUR_SECTION
1
53
85
27
13
79
42
67
31
6
75
17
62
50
71
56
86
95
91
76
70
23
21
73
3
74
57
36
66
44
63
51
78
82
7
61
46
49
18
29
37
48
11
87
97
81
33
10
92
19
99
14
93
4
60
77
30
35
80
65
64
20
55
22
98
72
83
94
43
5
38
39
28
88
58
34
90
25
8
47
54
2
68
89
41
59
69
100
45
96
52
84
16
9
26
32
24
12
40
15
-1
EOF
